p tw 176 39601 2 
1 90 
1 91 
1 93 
1 96 
1 98 
1 100 
1 101 
1 103 
1 105 
1 107 
1 110 
1 112 
1 113 
1 115 
1 117 
1 120 
1 121 
1 123 
1 125 
1 127 
1 130 
1 131 
1 134 
1 136 
1 137 
1 139 
1 141 
1 143 
1 145 
1 147 
1 149 
1 152 
1 153 
1 155 
1 157 
1 159 
1 161 
1 163 
1 165 
1 168 
1 170 
1 171 
1 173 
1 175 
2 89 
2 92 
2 94 
2 95 
2 97 
2 99 
2 102 
2 104 
2 106 
2 108 
2 109 
2 111 
2 114 
2 116 
2 118 
2 119 
2 122 
2 124 
2 126 
2 128 
2 129 
2 132 
2 133 
2 135 
2 138 
2 140 
2 142 
2 144 
2 146 
2 148 
2 150 
2 151 
2 154 
2 156 
2 158 
2 160 
2 162 
2 164 
2 166 
2 167 
2 169 
2 172 
2 174 
2 176 
3 4 
3 89 
3 91 
3 94 
3 95 
3 98 
3 100 
3 102 
3 104 
3 105 
3 108 
3 109 
3 111 
3 114 
3 115 
3 117 
3 120 
3 121 
3 123 
3 126 
3 127 
3 130 
3 131 
3 134 
3 136 
3 138 
3 139 
3 142 
3 144 
3 145 
3 147 
3 150 
3 151 
3 153 
3 156 
3 157 
3 159 
3 162 
3 163 
3 166 
3 167 
3 169 
3 172 
3 173 
3 176 
4 90 
4 92 
4 93 
4 96 
4 97 
4 99 
4 101 
4 103 
4 106 
4 107 
4 110 
4 112 
4 113 
4 116 
4 118 
4 119 
4 122 
4 124 
4 125 
4 128 
4 129 
4 132 
4 133 
4 135 
4 137 
4 140 
4 141 
4 143 
4 146 
4 148 
4 149 
4 152 
4 154 
4 155 
4 158 
4 160 
4 161 
4 164 
4 165 
4 168 
4 170 
4 171 
4 174 
4 175 
5 6 
5 89 
5 92 
5 93 
5 96 
5 98 
5 100 
5 101 
5 103 
5 105 
5 107 
5 110 
5 111 
5 114 
5 116 
5 118 
5 119 
5 121 
5 123 
5 126 
5 128 
5 129 
5 132 
5 134 
5 135 
5 138 
5 140 
5 141 
5 144 
5 145 
5 147 
5 149 
5 152 
5 153 
5 156 
5 157 
5 160 
5 161 
5 164 
5 166 
5 167 
5 169 
5 172 
5 173 
5 175 
6 90 
6 91 
6 94 
6 95 
6 97 
6 99 
6 102 
6 104 
6 106 
6 108 
6 109 
6 112 
6 113 
6 115 
6 117 
6 120 
6 122 
6 124 
6 125 
6 127 
6 130 
6 131 
6 133 
6 136 
6 137 
6 139 
6 142 
6 143 
6 146 
6 148 
6 150 
6 151 
6 154 
6 155 
6 158 
6 159 
6 162 
6 163 
6 165 
6 168 
6 170 
6 171 
6 174 
6 176 
7 8 
7 90 
7 92 
7 93 
7 96 
7 98 
7 100 
7 101 
7 104 
7 106 
7 108 
7 110 
7 112 
7 114 
7 116 
7 117 
7 120 
7 122 
7 123 
7 125 
7 128 
7 130 
7 132 
7 134 
7 136 
7 138 
7 139 
7 142 
7 144 
7 146 
7 147 
7 150 
7 152 
7 153 
7 155 
7 158 
7 160 
7 162 
7 164 
7 166 
7 168 
7 169 
7 171 
7 174 
7 176 
8 89 
8 91 
8 94 
8 95 
8 97 
8 99 
8 102 
8 103 
8 105 
8 107 
8 109 
8 111 
8 113 
8 115 
8 118 
8 119 
8 121 
8 124 
8 126 
8 127 
8 129 
8 131 
8 133 
8 135 
8 137 
8 140 
8 141 
8 143 
8 145 
8 148 
8 149 
8 151 
8 154 
8 156 
8 157 
8 159 
8 161 
8 163 
8 165 
8 167 
8 170 
8 172 
8 173 
8 175 
9 10 
9 89 
9 92 
9 94 
9 96 
9 98 
9 100 
9 101 
9 103 
9 106 
9 108 
9 109 
9 111 
9 114 
9 116 
9 118 
9 119 
9 121 
9 123 
9 125 
9 127 
9 130 
9 131 
9 133 
9 135 
9 138 
9 139 
9 142 
9 143 
9 146 
9 148 
9 150 
9 151 
9 153 
9 156 
9 158 
9 160 
9 161 
9 163 
9 165 
9 168 
9 170 
9 171 
9 173 
9 175 
10 90 
10 91 
10 93 
10 95 
10 97 
10 99 
10 102 
10 104 
10 105 
10 107 
10 110 
10 112 
10 113 
10 115 
10 117 
10 120 
10 122 
10 124 
10 126 
10 128 
10 129 
10 132 
10 134 
10 136 
10 137 
10 140 
10 141 
10 144 
10 145 
10 147 
10 149 
10 152 
10 154 
10 155 
10 157 
10 159 
10 162 
10 164 
10 166 
10 167 
10 169 
10 172 
10 174 
10 176 
11 12 
11 90 
11 92 
11 94 
11 96 
11 98 
11 100 
11 102 
11 104 
11 106 
11 108 
11 110 
11 111 
11 114 
11 116 
11 118 
11 120 
11 122 
11 124 
11 126 
11 127 
11 130 
11 132 
11 134 
11 136 
11 137 
11 140 
11 141 
11 143 
11 146 
11 148 
11 149 
11 152 
11 154 
11 156 
11 157 
11 159 
11 161 
11 163 
11 166 
11 168 
11 170 
11 172 
11 173 
11 176 
12 89 
12 91 
12 93 
12 95 
12 97 
12 99 
12 101 
12 103 
12 105 
12 107 
12 109 
12 112 
12 113 
12 115 
12 117 
12 119 
12 121 
12 123 
12 125 
12 128 
12 129 
12 131 
12 133 
12 135 
12 138 
12 139 
12 142 
12 144 
12 145 
12 147 
12 150 
12 151 
12 153 
12 155 
12 158 
12 160 
12 162 
12 164 
12 165 
12 167 
12 169 
12 171 
12 174 
12 175 
13 14 
13 90 
13 92 
13 94 
13 96 
13 97 
13 99 
13 101 
13 104 
13 106 
13 107 
13 110 
13 111 
13 114 
13 115 
13 117 
13 119 
13 121 
13 123 
13 126 
13 127 
13 130 
13 131 
13 134 
13 136 
13 137 
13 139 
13 141 
13 144 
13 146 
13 148 
13 149 
13 151 
13 154 
13 156 
13 157 
13 160 
13 162 
13 164 
13 165 
13 167 
13 169 
13 171 
13 174 
13 175 
14 89 
14 91 
14 93 
14 95 
14 98 
14 100 
14 102 
14 103 
14 105 
14 108 
14 109 
14 112 
14 113 
14 116 
14 118 
14 120 
14 122 
14 124 
14 125 
14 128 
14 129 
14 132 
14 133 
14 135 
14 138 
14 140 
14 142 
14 143 
14 145 
14 147 
14 150 
14 152 
14 153 
14 155 
14 158 
14 159 
14 161 
14 163 
14 166 
14 168 
14 170 
14 172 
14 173 
14 176 
15 16 
15 90 
15 92 
15 94 
15 95 
15 97 
15 100 
15 101 
15 103 
15 106 
15 107 
15 109 
15 111 
15 113 
15 116 
15 118 
15 120 
15 121 
15 124 
15 125 
15 128 
15 129 
15 131 
15 134 
15 136 
15 138 
15 139 
15 142 
15 143 
15 146 
15 147 
15 149 
15 152 
15 153 
15 156 
15 157 
15 159 
15 162 
15 164 
15 165 
15 167 
15 170 
15 172 
15 174 
15 176 
16 89 
16 91 
16 93 
16 96 
16 98 
16 99 
16 102 
16 104 
16 105 
16 108 
16 110 
16 112 
16 114 
16 115 
16 117 
16 119 
16 122 
16 123 
16 126 
16 127 
16 130 
16 132 
16 133 
16 135 
16 137 
16 140 
16 141 
16 144 
16 145 
16 148 
16 150 
16 151 
16 154 
16 155 
16 158 
16 160 
16 161 
16 163 
16 166 
16 168 
16 169 
16 171 
16 173 
16 175 
17 18 
17 90 
17 92 
17 93 
17 96 
17 97 
17 99 
17 102 
17 103 
17 106 
17 107 
17 110 
17 112 
17 114 
17 115 
17 118 
17 119 
17 122 
17 124 
17 125 
17 127 
17 130 
17 131 
17 134 
17 135 
17 138 
17 140 
17 142 
17 144 
17 146 
17 147 
17 150 
17 151 
17 153 
17 155 
17 157 
17 159 
17 162 
17 163 
17 166 
17 167 
17 170 
17 172 
17 173 
17 175 
18 89 
18 91 
18 94 
18 95 
18 98 
18 100 
18 101 
18 104 
18 105 
18 108 
18 109 
18 111 
18 113 
18 116 
18 117 
18 120 
18 121 
18 123 
18 126 
18 128 
18 129 
18 132 
18 133 
18 136 
18 137 
18 139 
18 141 
18 143 
18 145 
18 148 
18 149 
18 152 
18 154 
18 156 
18 158 
18 160 
18 161 
18 164 
18 165 
18 168 
18 169 
18 171 
18 174 
18 176 
19 20 
19 89 
19 91 
19 94 
19 95 
19 97 
19 100 
19 102 
19 103 
19 106 
19 107 
19 110 
19 112 
19 114 
19 116 
19 117 
19 119 
19 121 
19 123 
19 126 
19 128 
19 130 
19 131 
19 134 
19 135 
19 137 
19 139 
19 141 
19 143 
19 146 
19 147 
19 150 
19 152 
19 154 
19 155 
19 158 
19 160 
19 161 
19 163 
19 166 
19 167 
19 170 
19 172 
19 174 
19 176 
20 90 
20 92 
20 93 
20 96 
20 98 
20 99 
20 101 
20 104 
20 105 
20 108 
20 109 
20 111 
20 113 
20 115 
20 118 
20 120 
20 122 
20 124 
20 125 
20 127 
20 129 
20 132 
20 133 
20 136 
20 138 
20 140 
20 142 
20 144 
20 145 
20 148 
20 149 
20 151 
20 153 
20 156 
20 157 
20 159 
20 162 
20 164 
20 165 
20 168 
20 169 
20 171 
20 173 
20 175 
21 22 
21 89 
21 91 
21 94 
21 96 
21 98 
21 100 
21 102 
21 104 
21 106 
21 107 
21 110 
21 111 
21 114 
21 115 
21 117 
21 120 
21 121 
21 124 
21 125 
21 127 
21 129 
21 132 
21 133 
21 135 
21 138 
21 140 
21 141 
21 144 
21 146 
21 147 
21 149 
21 151 
21 153 
21 155 
21 158 
21 159 
21 161 
21 164 
21 165 
21 167 
21 170 
21 171 
21 174 
21 176 
22 90 
22 92 
22 93 
22 95 
22 97 
22 99 
22 101 
22 103 
22 105 
22 108 
22 109 
22 112 
22 113 
22 116 
22 118 
22 119 
22 122 
22 123 
22 126 
22 128 
22 130 
22 131 
22 134 
22 136 
22 137 
22 139 
22 142 
22 143 
22 145 
22 148 
22 150 
22 152 
22 154 
22 156 
22 157 
22 160 
22 162 
22 163 
22 166 
22 168 
22 169 
22 172 
22 173 
22 175 
23 24 
23 89 
23 92 
23 93 
23 95 
23 97 
23 100 
23 102 
23 104 
23 105 
23 108 
23 110 
23 111 
23 114 
23 115 
23 118 
23 119 
23 122 
23 124 
23 125 
23 128 
23 130 
23 131 
23 133 
23 135 
23 137 
23 139 
23 141 
23 144 
23 145 
23 147 
23 149 
23 152 
23 153 
23 156 
23 157 
23 160 
23 162 
23 163 
23 165 
23 168 
23 170 
23 171 
23 174 
23 176 
24 90 
24 91 
24 94 
24 96 
24 98 
24 99 
24 101 
24 103 
24 106 
24 107 
24 109 
24 112 
24 113 
24 116 
24 117 
24 120 
24 121 
24 123 
24 126 
24 127 
24 129 
24 132 
24 134 
24 136 
24 138 
24 140 
24 142 
24 143 
24 146 
24 148 
24 150 
24 151 
24 154 
24 155 
24 158 
24 159 
24 161 
24 164 
24 166 
24 167 
24 169 
24 172 
24 173 
24 175 
25 26 
25 90 
25 91 
25 93 
25 95 
25 98 
25 100 
25 102 
25 103 
25 105 
25 108 
25 109 
25 111 
25 113 
25 116 
25 118 
25 119 
25 122 
25 124 
25 126 
25 127 
25 130 
25 132 
25 134 
25 136 
25 138 
25 139 
25 141 
25 144 
25 146 
25 147 
25 150 
25 151 
25 154 
25 155 
25 157 
25 160 
25 161 
25 164 
25 165 
25 167 
25 170 
25 171 
25 174 
25 175 
26 89 
26 92 
26 94 
26 96 
26 97 
26 99 
26 101 
26 104 
26 106 
26 107 
26 110 
26 112 
26 114 
26 115 
26 117 
26 120 
26 121 
26 123 
26 125 
26 128 
26 129 
26 131 
26 133 
26 135 
26 137 
26 140 
26 142 
26 143 
26 145 
26 148 
26 149 
26 152 
26 153 
26 156 
26 158 
26 159 
26 162 
26 163 
26 166 
26 168 
26 169 
26 172 
26 173 
26 176 
27 28 
27 90 
27 92 
27 93 
27 95 
27 97 
27 100 
27 102 
27 103 
27 106 
27 108 
27 109 
27 111 
27 114 
27 116 
27 117 
27 120 
27 121 
27 123 
27 125 
27 127 
27 129 
27 131 
27 133 
27 136 
27 137 
27 140 
27 141 
27 144 
27 145 
27 147 
27 149 
27 151 
27 154 
27 155 
27 158 
27 160 
27 162 
27 164 
27 166 
27 168 
27 170 
27 172 
27 173 
27 175 
28 89 
28 91 
28 94 
28 96 
28 98 
28 99 
28 101 
28 104 
28 105 
28 107 
28 110 
28 112 
28 113 
28 115 
28 118 
28 119 
28 122 
28 124 
28 126 
28 128 
28 130 
28 132 
28 134 
28 135 
28 138 
28 139 
28 142 
28 143 
28 146 
28 148 
28 150 
28 152 
28 153 
28 156 
28 157 
28 159 
28 161 
28 163 
28 165 
28 167 
28 169 
28 171 
28 174 
28 176 
29 30 
29 89 
29 91 
29 94 
29 95 
29 97 
29 99 
29 101 
29 103 
29 106 
29 108 
29 110 
29 111 
29 113 
29 116 
29 117 
29 120 
29 121 
29 124 
29 126 
29 127 
29 130 
29 132 
29 134 
29 135 
29 138 
29 140 
29 142 
29 144 
29 145 
29 148 
29 149 
29 152 
29 153 
29 155 
29 157 
29 160 
29 162 
29 163 
29 166 
29 168 
29 170 
29 171 
29 174 
29 175 
30 90 
30 92 
30 93 
30 96 
30 98 
30 100 
30 102 
30 104 
30 105 
30 107 
30 109 
30 112 
30 114 
30 115 
30 118 
30 119 
30 122 
30 123 
30 125 
30 128 
30 129 
30 131 
30 133 
30 136 
30 137 
30 139 
30 141 
30 143 
30 146 
30 147 
30 150 
30 151 
30 154 
30 156 
30 158 
30 159 
30 161 
30 164 
30 165 
30 167 
30 169 
30 172 
30 173 
30 176 
31 32 
31 90 
31 92 
31 93 
31 95 
31 98 
31 99 
31 101 
31 103 
31 105 
31 108 
31 110 
31 111 
31 114 
31 115 
31 117 
31 119 
31 121 
31 124 
31 126 
31 128 
31 129 
31 131 
31 133 
31 136 
31 138 
31 139 
31 142 
31 144 
31 146 
31 148 
31 149 
31 152 
31 154 
31 155 
31 158 
31 159 
31 161 
31 163 
31 166 
31 167 
31 170 
31 171 
31 173 
31 176 
32 89 
32 91 
32 94 
32 96 
32 97 
32 100 
32 102 
32 104 
32 106 
32 107 
32 109 
32 112 
32 113 
32 116 
32 118 
32 120 
32 122 
32 123 
32 125 
32 127 
32 130 
32 132 
32 134 
32 135 
32 137 
32 140 
32 141 
32 143 
32 145 
32 147 
32 150 
32 151 
32 153 
32 156 
32 157 
32 160 
32 162 
32 164 
32 165 
32 168 
32 169 
32 172 
32 174 
32 175 
33 34 
33 89 
33 91 
33 93 
33 96 
33 97 
33 99 
33 102 
33 103 
33 106 
33 107 
33 110 
33 111 
33 114 
33 116 
33 117 
33 119 
33 122 
33 123 
33 126 
33 127 
33 129 
33 132 
33 133 
33 136 
33 138 
33 139 
33 142 
33 143 
33 145 
33 147 
33 150 
33 152 
33 154 
33 156 
33 157 
33 159 
33 162 
33 164 
33 165 
33 168 
33 170 
33 171 
33 173 
33 176 
34 90 
34 92 
34 94 
34 95 
34 98 
34 100 
34 101 
34 104 
34 105 
34 108 
34 109 
34 112 
34 113 
34 115 
34 118 
34 120 
34 121 
34 124 
34 125 
34 128 
34 130 
34 131 
34 134 
34 135 
34 137 
34 140 
34 141 
34 144 
34 146 
34 148 
34 149 
34 151 
34 153 
34 155 
34 158 
34 160 
34 161 
34 163 
34 166 
34 167 
34 169 
34 172 
34 174 
34 175 
35 36 
35 90 
35 91 
35 93 
35 96 
35 98 
35 99 
35 102 
35 104 
35 105 
35 107 
35 109 
35 111 
35 113 
35 116 
35 117 
35 119 
35 121 
35 124 
35 126 
35 128 
35 130 
35 131 
35 134 
35 135 
35 137 
35 140 
35 142 
35 143 
35 146 
35 147 
35 149 
35 151 
35 153 
35 156 
35 158 
35 160 
35 162 
35 164 
35 166 
35 168 
35 170 
35 171 
35 173 
35 176 
36 89 
36 92 
36 94 
36 95 
36 97 
36 100 
36 101 
36 103 
36 106 
36 108 
36 110 
36 112 
36 114 
36 115 
36 118 
36 120 
36 122 
36 123 
36 125 
36 127 
36 129 
36 132 
36 133 
36 136 
36 138 
36 139 
36 141 
36 144 
36 145 
36 148 
36 150 
36 152 
36 154 
36 155 
36 157 
36 159 
36 161 
36 163 
36 165 
36 167 
36 169 
36 172 
36 174 
36 175 
37 38 
37 89 
37 91 
37 94 
37 95 
37 98 
37 99 
37 101 
37 104 
37 105 
37 107 
37 109 
37 112 
37 114 
37 116 
37 118 
37 119 
37 122 
37 123 
37 125 
37 127 
37 129 
37 131 
37 134 
37 136 
37 138 
37 140 
37 141 
37 144 
37 146 
37 147 
37 149 
37 152 
37 154 
37 156 
37 158 
37 159 
37 162 
37 163 
37 166 
37 168 
37 170 
37 171 
37 174 
37 175 
38 90 
38 92 
38 93 
38 96 
38 97 
38 100 
38 102 
38 103 
38 106 
38 108 
38 110 
38 111 
38 113 
38 115 
38 117 
38 120 
38 121 
38 124 
38 126 
38 128 
38 130 
38 132 
38 133 
38 135 
38 137 
38 139 
38 142 
38 143 
38 145 
38 148 
38 150 
38 151 
38 153 
38 155 
38 157 
38 160 
38 161 
38 164 
38 165 
38 167 
38 169 
38 172 
38 173 
38 176 
39 40 
39 89 
39 92 
39 93 
39 95 
39 98 
39 99 
39 102 
39 103 
39 105 
39 107 
39 109 
39 111 
39 114 
39 115 
39 117 
39 120 
39 122 
39 123 
39 125 
39 127 
39 130 
39 131 
39 134 
39 135 
39 138 
39 140 
39 142 
39 143 
39 146 
39 148 
39 149 
39 152 
39 154 
39 155 
39 157 
39 160 
39 161 
39 164 
39 165 
39 168 
39 169 
39 172 
39 174 
39 176 
40 90 
40 91 
40 94 
40 96 
40 97 
40 100 
40 101 
40 104 
40 106 
40 108 
40 110 
40 112 
40 113 
40 116 
40 118 
40 119 
40 121 
40 124 
40 126 
40 128 
40 129 
40 132 
40 133 
40 136 
40 137 
40 139 
40 141 
40 144 
40 145 
40 147 
40 150 
40 151 
40 153 
40 156 
40 158 
40 159 
40 162 
40 163 
40 166 
40 167 
40 170 
40 171 
40 173 
40 175 
41 42 
41 89 
41 91 
41 93 
41 95 
41 97 
41 99 
41 102 
41 103 
41 106 
41 107 
41 109 
41 111 
41 114 
41 115 
41 118 
41 120 
41 121 
41 124 
41 125 
41 128 
41 130 
41 132 
41 134 
41 136 
41 137 
41 139 
41 141 
41 144 
41 146 
41 148 
41 150 
41 152 
41 153 
41 156 
41 158 
41 159 
41 161 
41 164 
41 166 
41 168 
41 169 
41 171 
41 173 
41 175 
42 90 
42 92 
42 94 
42 96 
42 98 
42 100 
42 101 
42 104 
42 105 
42 108 
42 110 
42 112 
42 113 
42 116 
42 117 
42 119 
42 122 
42 123 
42 126 
42 127 
42 129 
42 131 
42 133 
42 135 
42 138 
42 140 
42 142 
42 143 
42 145 
42 147 
42 149 
42 151 
42 154 
42 155 
42 157 
42 160 
42 162 
42 163 
42 165 
42 167 
42 170 
42 172 
42 174 
42 176 
43 44 
43 89 
43 91 
43 93 
43 96 
43 97 
43 100 
43 101 
43 104 
43 105 
43 108 
43 110 
43 111 
43 113 
43 115 
43 117 
43 120 
43 122 
43 124 
43 125 
43 127 
43 129 
43 131 
43 134 
43 135 
43 138 
43 139 
43 141 
43 143 
43 146 
43 148 
43 150 
43 152 
43 154 
43 156 
43 158 
43 160 
43 162 
43 164 
43 166 
43 167 
43 170 
43 172 
43 173 
43 175 
44 90 
44 92 
44 94 
44 95 
44 98 
44 99 
44 102 
44 103 
44 106 
44 107 
44 109 
44 112 
44 114 
44 116 
44 118 
44 119 
44 121 
44 123 
44 126 
44 128 
44 130 
44 132 
44 133 
44 136 
44 137 
44 140 
44 142 
44 144 
44 145 
44 147 
44 149 
44 151 
44 153 
44 155 
44 157 
44 159 
44 161 
44 163 
44 165 
44 168 
44 169 
44 171 
44 174 
44 176 
45 46 
45 90 
45 92 
45 93 
45 95 
45 98 
45 99 
45 102 
45 104 
45 106 
45 107 
45 110 
45 111 
45 113 
45 116 
45 117 
45 120 
45 122 
45 123 
45 126 
45 128 
45 129 
45 131 
45 134 
45 135 
45 138 
45 139 
45 141 
45 144 
45 145 
45 148 
45 150 
45 151 
45 153 
45 156 
45 158 
45 159 
45 161 
45 163 
45 165 
45 168 
45 170 
45 172 
45 174 
45 175 
46 89 
46 91 
46 94 
46 96 
46 97 
46 100 
46 101 
46 103 
46 105 
46 108 
46 109 
46 112 
46 114 
46 115 
46 118 
46 119 
46 121 
46 124 
46 125 
46 127 
46 130 
46 132 
46 133 
46 136 
46 137 
46 140 
46 142 
46 143 
46 146 
46 147 
46 149 
46 152 
46 154 
46 155 
46 157 
46 160 
46 162 
46 164 
46 166 
46 167 
46 169 
46 171 
46 173 
46 176 
47 48 
47 89 
47 92 
47 94 
47 96 
47 98 
47 99 
47 101 
47 103 
47 105 
47 107 
47 109 
47 111 
47 114 
47 115 
47 117 
47 120 
47 122 
47 124 
47 126 
47 128 
47 129 
47 132 
47 133 
47 136 
47 137 
47 139 
47 141 
47 143 
47 146 
47 147 
47 150 
47 151 
47 153 
47 155 
47 157 
47 160 
47 162 
47 163 
47 166 
47 168 
47 170 
47 172 
47 174 
47 175 
48 90 
48 91 
48 93 
48 95 
48 97 
48 100 
48 102 
48 104 
48 106 
48 108 
48 110 
48 112 
48 113 
48 116 
48 118 
48 119 
48 121 
48 123 
48 125 
48 127 
48 130 
48 131 
48 134 
48 135 
48 138 
48 140 
48 142 
48 144 
48 145 
48 148 
48 149 
48 152 
48 154 
48 156 
48 158 
48 159 
48 161 
48 164 
48 165 
48 167 
48 169 
48 171 
48 173 
48 176 
49 50 
49 89 
49 91 
49 93 
49 95 
49 98 
49 100 
49 101 
49 104 
49 106 
49 107 
49 110 
49 111 
49 113 
49 115 
49 118 
49 119 
49 121 
49 123 
49 125 
49 128 
49 129 
49 132 
49 134 
49 136 
49 137 
49 140 
49 142 
49 144 
49 146 
49 148 
49 150 
49 151 
49 154 
49 155 
49 157 
49 160 
49 162 
49 163 
49 165 
49 168 
49 170 
49 172 
49 173 
49 176 
50 90 
50 92 
50 94 
50 96 
50 97 
50 99 
50 102 
50 103 
50 105 
50 108 
50 109 
50 112 
50 114 
50 116 
50 117 
50 120 
50 122 
50 124 
50 126 
50 127 
50 130 
50 131 
50 133 
50 135 
50 138 
50 139 
50 141 
50 143 
50 145 
50 147 
50 149 
50 152 
50 153 
50 156 
50 158 
50 159 
50 161 
50 164 
50 166 
50 167 
50 169 
50 171 
50 174 
50 175 
51 52 
51 90 
51 91 
51 93 
51 95 
51 98 
51 100 
51 101 
51 104 
51 106 
51 107 
51 109 
51 111 
51 114 
51 115 
51 118 
51 119 
51 122 
51 123 
51 126 
51 127 
51 130 
51 132 
51 133 
51 135 
51 137 
51 139 
51 142 
51 143 
51 145 
51 148 
51 149 
51 152 
51 153 
51 155 
51 158 
51 159 
51 162 
51 164 
51 166 
51 167 
51 170 
51 172 
51 174 
51 175 
52 89 
52 92 
52 94 
52 96 
52 97 
52 99 
52 102 
52 103 
52 105 
52 108 
52 110 
52 112 
52 113 
52 116 
52 117 
52 120 
52 121 
52 124 
52 125 
52 128 
52 129 
52 131 
52 134 
52 136 
52 138 
52 140 
52 141 
52 144 
52 146 
52 147 
52 150 
52 151 
52 154 
52 156 
52 157 
52 160 
52 161 
52 163 
52 165 
52 168 
52 169 
52 171 
52 173 
52 176 
53 54 
53 89 
53 92 
53 93 
53 95 
53 98 
53 99 
53 101 
53 103 
53 105 
53 108 
53 110 
53 112 
53 114 
53 116 
53 117 
53 119 
53 121 
53 124 
53 125 
53 127 
53 130 
53 132 
53 134 
53 136 
53 137 
53 140 
53 141 
53 143 
53 145 
53 148 
53 150 
53 151 
53 153 
53 156 
53 158 
53 159 
53 162 
53 164 
53 165 
53 167 
53 170 
53 172 
53 174 
53 176 
54 90 
54 91 
54 94 
54 96 
54 97 
54 100 
54 102 
54 104 
54 106 
54 107 
54 109 
54 111 
54 113 
54 115 
54 118 
54 120 
54 122 
54 123 
54 126 
54 128 
54 129 
54 131 
54 133 
54 135 
54 138 
54 139 
54 142 
54 144 
54 146 
54 147 
54 149 
54 152 
54 154 
54 155 
54 157 
54 160 
54 161 
54 163 
54 166 
54 168 
54 169 
54 171 
54 173 
54 175 
55 56 
55 90 
55 91 
55 94 
55 95 
55 97 
55 99 
55 101 
55 104 
55 105 
55 107 
55 110 
55 111 
55 114 
55 116 
55 118 
55 120 
55 122 
55 123 
55 125 
55 128 
55 130 
55 131 
55 133 
55 136 
55 138 
55 140 
55 141 
55 143 
55 145 
55 148 
55 150 
55 151 
55 153 
55 155 
55 157 
55 160 
55 161 
55 164 
55 166 
55 167 
55 170 
55 171 
55 173 
55 176 
56 89 
56 92 
56 93 
56 96 
56 98 
56 100 
56 102 
56 103 
56 106 
56 108 
56 109 
56 112 
56 113 
56 115 
56 117 
56 119 
56 121 
56 124 
56 126 
56 127 
56 129 
56 132 
56 134 
56 135 
56 137 
56 139 
56 142 
56 144 
56 146 
56 147 
56 149 
56 152 
56 154 
56 156 
56 158 
56 159 
56 162 
56 163 
56 165 
56 168 
56 169 
56 172 
56 174 
56 175 
57 58 
57 89 
57 92 
57 94 
57 96 
57 98 
57 99 
57 101 
57 103 
57 106 
57 108 
57 109 
57 111 
57 113 
57 115 
57 118 
57 120 
57 122 
57 123 
57 126 
57 128 
57 130 
57 131 
57 134 
57 135 
57 137 
57 140 
57 141 
57 144 
57 145 
57 147 
57 150 
57 152 
57 154 
57 155 
57 158 
57 159 
57 162 
57 164 
57 165 
57 167 
57 170 
57 171 
57 173 
57 176 
58 90 
58 91 
58 93 
58 95 
58 97 
58 100 
58 102 
58 104 
58 105 
58 107 
58 110 
58 112 
58 114 
58 116 
58 117 
58 119 
58 121 
58 124 
58 125 
58 127 
58 129 
58 132 
58 133 
58 136 
58 138 
58 139 
58 142 
58 143 
58 146 
58 148 
58 149 
58 151 
58 153 
58 156 
58 157 
58 160 
58 161 
58 163 
58 166 
58 168 
58 169 
58 172 
58 174 
58 175 
59 60 
59 90 
59 92 
59 94 
59 96 
59 97 
59 100 
59 102 
59 103 
59 105 
59 107 
59 109 
59 111 
59 113 
59 115 
59 117 
59 119 
59 122 
59 123 
59 125 
59 127 
59 129 
59 132 
59 134 
59 136 
59 137 
59 140 
59 142 
59 144 
59 145 
59 148 
59 150 
59 152 
59 153 
59 156 
59 158 
59 160 
59 161 
59 163 
59 166 
59 167 
59 170 
59 171 
59 174 
59 176 
60 89 
60 91 
60 93 
60 95 
60 98 
60 99 
60 101 
60 104 
60 106 
60 108 
60 110 
60 112 
60 114 
60 116 
60 118 
60 120 
60 121 
60 124 
60 126 
60 128 
60 130 
60 131 
60 133 
60 135 
60 138 
60 139 
60 141 
60 143 
60 146 
60 147 
60 149 
60 151 
60 154 
60 155 
60 157 
60 159 
60 162 
60 164 
60 165 
60 168 
60 169 
60 172 
60 173 
60 175 
61 62 
61 89 
61 92 
61 94 
61 96 
61 97 
61 99 
61 102 
61 104 
61 105 
61 108 
61 110 
61 111 
61 113 
61 115 
61 118 
61 119 
61 121 
61 123 
61 125 
61 128 
61 130 
61 132 
61 134 
61 136 
61 138 
61 139 
61 142 
61 143 
61 145 
61 147 
61 149 
61 151 
61 154 
61 155 
61 158 
61 159 
61 161 
61 164 
61 166 
61 168 
61 170 
61 172 
61 174 
61 175 
62 90 
62 91 
62 93 
62 95 
62 98 
62 100 
62 101 
62 103 
62 106 
62 107 
62 109 
62 112 
62 114 
62 116 
62 117 
62 120 
62 122 
62 124 
62 126 
62 127 
62 129 
62 131 
62 133 
62 135 
62 137 
62 140 
62 141 
62 144 
62 146 
62 148 
62 150 
62 152 
62 153 
62 156 
62 157 
62 160 
62 162 
62 163 
62 165 
62 167 
62 169 
62 171 
62 173 
62 176 
63 64 
63 90 
63 91 
63 94 
63 96 
63 97 
63 100 
63 101 
63 103 
63 105 
63 107 
63 109 
63 111 
63 114 
63 116 
63 117 
63 119 
63 122 
63 124 
63 125 
63 128 
63 130 
63 132 
63 134 
63 135 
63 138 
63 139 
63 141 
63 144 
63 145 
63 148 
63 149 
63 151 
63 154 
63 155 
63 158 
63 159 
63 162 
63 163 
63 165 
63 168 
63 169 
63 172 
63 173 
63 176 
64 89 
64 92 
64 93 
64 95 
64 98 
64 99 
64 102 
64 104 
64 106 
64 108 
64 110 
64 112 
64 113 
64 115 
64 118 
64 120 
64 121 
64 123 
64 126 
64 127 
64 129 
64 131 
64 133 
64 136 
64 137 
64 140 
64 142 
64 143 
64 146 
64 147 
64 150 
64 152 
64 153 
64 156 
64 157 
64 160 
64 161 
64 164 
64 166 
64 167 
64 170 
64 171 
64 174 
64 175 
65 66 
65 89 
65 92 
65 93 
65 96 
65 97 
65 100 
65 101 
65 104 
65 105 
65 107 
65 109 
65 112 
65 114 
65 116 
65 118 
65 120 
65 121 
65 124 
65 126 
65 127 
65 129 
65 131 
65 134 
65 135 
65 137 
65 139 
65 142 
65 144 
65 145 
65 148 
65 150 
65 151 
65 154 
65 155 
65 157 
65 159 
65 161 
65 164 
65 166 
65 168 
65 170 
65 171 
65 174 
65 176 
66 90 
66 91 
66 94 
66 95 
66 98 
66 99 
66 102 
66 103 
66 106 
66 108 
66 110 
66 111 
66 113 
66 115 
66 117 
66 119 
66 122 
66 123 
66 125 
66 128 
66 130 
66 132 
66 133 
66 136 
66 138 
66 140 
66 141 
66 143 
66 146 
66 147 
66 149 
66 152 
66 153 
66 156 
66 158 
66 160 
66 162 
66 163 
66 165 
66 167 
66 169 
66 172 
66 173 
66 175 
67 68 
67 90 
67 91 
67 93 
67 96 
67 97 
67 99 
67 101 
67 104 
67 105 
67 108 
67 109 
67 111 
67 114 
67 116 
67 117 
67 120 
67 121 
67 123 
67 125 
67 128 
67 130 
67 132 
67 133 
67 135 
67 137 
67 140 
67 142 
67 144 
67 146 
67 147 
67 150 
67 152 
67 154 
67 156 
67 157 
67 159 
67 161 
67 163 
67 165 
67 167 
67 170 
67 172 
67 174 
67 175 
68 89 
68 92 
68 94 
68 95 
68 98 
68 100 
68 102 
68 103 
68 106 
68 107 
68 110 
68 112 
68 113 
68 115 
68 118 
68 119 
68 122 
68 124 
68 126 
68 127 
68 129 
68 131 
68 134 
68 136 
68 138 
68 139 
68 141 
68 143 
68 145 
68 148 
68 149 
68 151 
68 153 
68 155 
68 158 
68 160 
68 162 
68 164 
68 166 
68 168 
68 169 
68 171 
68 173 
68 176 
69 70 
69 90 
69 91 
69 94 
69 96 
69 98 
69 100 
69 102 
69 103 
69 105 
69 107 
69 110 
69 112 
69 114 
69 115 
69 118 
69 120 
69 121 
69 124 
69 126 
69 128 
69 130 
69 131 
69 133 
69 136 
69 138 
69 140 
69 142 
69 144 
69 145 
69 148 
69 150 
69 152 
69 154 
69 156 
69 158 
69 160 
69 162 
69 164 
69 165 
69 168 
69 170 
69 172 
69 174 
69 175 
70 89 
70 92 
70 93 
70 95 
70 97 
70 99 
70 101 
70 104 
70 106 
70 108 
70 109 
70 111 
70 113 
70 116 
70 117 
70 119 
70 122 
70 123 
70 125 
70 127 
70 129 
70 132 
70 134 
70 135 
70 137 
70 139 
70 141 
70 143 
70 146 
70 147 
70 149 
70 151 
70 153 
70 155 
70 157 
70 159 
70 161 
70 163 
70 166 
70 167 
70 169 
70 171 
70 173 
70 176 
71 72 
71 90 
71 91 
71 93 
71 96 
71 98 
71 99 
71 102 
71 103 
71 106 
71 108 
71 109 
71 112 
71 114 
71 115 
71 118 
71 120 
71 121 
71 123 
71 125 
71 128 
71 129 
71 132 
71 134 
71 135 
71 138 
71 139 
71 141 
71 143 
71 145 
71 148 
71 149 
71 151 
71 154 
71 156 
71 157 
71 160 
71 162 
71 163 
71 166 
71 167 
71 170 
71 171 
71 174 
71 176 
72 89 
72 92 
72 94 
72 95 
72 97 
72 100 
72 101 
72 104 
72 105 
72 107 
72 110 
72 111 
72 113 
72 116 
72 117 
72 119 
72 122 
72 124 
72 126 
72 127 
72 130 
72 131 
72 133 
72 136 
72 137 
72 140 
72 142 
72 144 
72 146 
72 147 
72 150 
72 152 
72 153 
72 155 
72 158 
72 159 
72 161 
72 164 
72 165 
72 168 
72 169 
72 172 
72 173 
72 175 
73 74 
73 89 
73 91 
73 94 
73 96 
73 98 
73 99 
73 102 
73 104 
73 106 
73 108 
73 109 
73 112 
73 114 
73 116 
73 117 
73 119 
73 122 
73 124 
73 125 
73 128 
73 129 
73 131 
73 134 
73 136 
73 137 
73 139 
73 142 
73 144 
73 145 
73 148 
73 149 
73 152 
73 153 
73 155 
73 157 
73 160 
73 161 
73 164 
73 165 
73 167 
73 170 
73 172 
73 173 
73 175 
74 90 
74 92 
74 93 
74 95 
74 97 
74 100 
74 101 
74 103 
74 105 
74 107 
74 110 
74 111 
74 113 
74 115 
74 118 
74 120 
74 121 
74 123 
74 126 
74 127 
74 130 
74 132 
74 133 
74 135 
74 138 
74 140 
74 141 
74 143 
74 146 
74 147 
74 150 
74 151 
74 154 
74 156 
74 158 
74 159 
74 162 
74 163 
74 166 
74 168 
74 169 
74 171 
74 174 
74 176 
75 76 
75 89 
75 92 
75 93 
75 95 
75 97 
75 100 
75 101 
75 104 
75 106 
75 107 
75 109 
75 112 
75 114 
75 115 
75 117 
75 120 
75 122 
75 124 
75 126 
75 128 
75 130 
75 132 
75 134 
75 136 
75 138 
75 140 
75 142 
75 143 
75 145 
75 147 
75 149 
75 151 
75 154 
75 156 
75 158 
75 160 
75 161 
75 163 
75 165 
75 167 
75 170 
75 171 
75 173 
75 175 
76 90 
76 91 
76 94 
76 96 
76 98 
76 99 
76 102 
76 103 
76 105 
76 108 
76 110 
76 111 
76 113 
76 116 
76 118 
76 119 
76 121 
76 123 
76 125 
76 127 
76 129 
76 131 
76 133 
76 135 
76 137 
76 139 
76 141 
76 144 
76 146 
76 148 
76 150 
76 152 
76 153 
76 155 
76 157 
76 159 
76 162 
76 164 
76 166 
76 168 
76 169 
76 172 
76 174 
76 176 
77 78 
77 90 
77 91 
77 94 
77 95 
77 98 
77 100 
77 101 
77 103 
77 106 
77 108 
77 110 
77 111 
77 114 
77 115 
77 117 
77 119 
77 122 
77 124 
77 125 
77 128 
77 129 
77 131 
77 134 
77 135 
77 137 
77 140 
77 142 
77 143 
77 145 
77 147 
77 150 
77 151 
77 154 
77 156 
77 157 
77 159 
77 161 
77 164 
77 166 
77 168 
77 169 
77 171 
77 174 
77 175 
78 89 
78 92 
78 93 
78 96 
78 97 
78 99 
78 102 
78 104 
78 105 
78 107 
78 109 
78 112 
78 113 
78 116 
78 118 
78 120 
78 121 
78 123 
78 126 
78 127 
78 130 
78 132 
78 133 
78 136 
78 138 
78 139 
78 141 
78 144 
78 146 
78 148 
78 149 
78 152 
78 153 
78 155 
78 158 
78 160 
78 162 
78 163 
78 165 
78 167 
78 170 
78 172 
78 173 
78 176 
79 80 
79 90 
79 91 
79 93 
79 96 
79 97 
79 99 
79 101 
79 104 
79 106 
79 108 
79 109 
79 111 
79 114 
79 115 
79 118 
79 119 
79 121 
79 124 
79 126 
79 127 
79 129 
79 131 
79 134 
79 136 
79 138 
79 140 
79 141 
79 143 
79 145 
79 147 
79 150 
79 152 
79 153 
79 155 
79 158 
79 160 
79 161 
79 163 
79 165 
79 168 
79 169 
79 172 
79 174 
79 176 
80 89 
80 92 
80 94 
80 95 
80 98 
80 100 
80 102 
80 103 
80 105 
80 107 
80 110 
80 112 
80 113 
80 116 
80 117 
80 120 
80 122 
80 123 
80 125 
80 128 
80 130 
80 132 
80 133 
80 135 
80 137 
80 139 
80 142 
80 144 
80 146 
80 148 
80 149 
80 151 
80 154 
80 156 
80 157 
80 159 
80 162 
80 164 
80 166 
80 167 
80 170 
80 171 
80 173 
80 175 
81 82 
81 90 
81 91 
81 94 
81 95 
81 97 
81 99 
81 101 
81 103 
81 105 
81 108 
81 110 
81 112 
81 114 
81 115 
81 118 
81 120 
81 122 
81 123 
81 126 
81 127 
81 129 
81 132 
81 134 
81 135 
81 137 
81 139 
81 142 
81 144 
81 146 
81 147 
81 149 
81 151 
81 153 
81 156 
81 158 
81 160 
81 161 
81 164 
81 165 
81 168 
81 170 
81 172 
81 173 
81 176 
82 89 
82 92 
82 93 
82 96 
82 98 
82 100 
82 102 
82 104 
82 106 
82 107 
82 109 
82 111 
82 113 
82 116 
82 117 
82 119 
82 121 
82 124 
82 125 
82 128 
82 130 
82 131 
82 133 
82 136 
82 138 
82 140 
82 141 
82 143 
82 145 
82 148 
82 150 
82 152 
82 154 
82 155 
82 157 
82 159 
82 162 
82 163 
82 166 
82 167 
82 169 
82 171 
82 174 
82 175 
83 84 
83 90 
83 92 
83 94 
83 95 
83 97 
83 100 
83 102 
83 104 
83 105 
83 108 
83 109 
83 112 
83 114 
83 115 
83 117 
83 119 
83 121 
83 123 
83 126 
83 128 
83 129 
83 132 
83 134 
83 135 
83 138 
83 140 
83 141 
83 143 
83 146 
83 148 
83 150 
83 152 
83 153 
83 155 
83 157 
83 159 
83 162 
83 164 
83 165 
83 168 
83 170 
83 171 
83 173 
83 175 
84 89 
84 91 
84 93 
84 96 
84 98 
84 99 
84 101 
84 103 
84 106 
84 107 
84 110 
84 111 
84 113 
84 116 
84 118 
84 120 
84 122 
84 124 
84 125 
84 127 
84 130 
84 131 
84 133 
84 136 
84 137 
84 139 
84 142 
84 144 
84 145 
84 147 
84 149 
84 151 
84 154 
84 156 
84 158 
84 160 
84 161 
84 163 
84 166 
84 167 
84 169 
84 172 
84 174 
84 176 
85 86 
85 90 
85 92 
85 94 
85 95 
85 98 
85 99 
85 102 
85 104 
85 105 
85 107 
85 110 
85 111 
85 114 
85 116 
85 118 
85 120 
85 121 
85 124 
85 125 
85 127 
85 129 
85 132 
85 134 
85 135 
85 137 
85 139 
85 142 
85 143 
85 145 
85 147 
85 150 
85 152 
85 154 
85 155 
85 158 
85 160 
85 162 
85 163 
85 165 
85 167 
85 169 
85 171 
85 173 
85 175 
86 89 
86 91 
86 93 
86 96 
86 97 
86 100 
86 101 
86 103 
86 106 
86 108 
86 109 
86 112 
86 113 
86 115 
86 117 
86 119 
86 122 
86 123 
86 126 
86 128 
86 130 
86 131 
86 133 
86 136 
86 138 
86 140 
86 141 
86 144 
86 146 
86 148 
86 149 
86 151 
86 153 
86 156 
86 157 
86 159 
86 161 
86 164 
86 166 
86 168 
86 170 
86 172 
86 174 
86 176 
87 88 
87 89 
87 91 
87 93 
87 96 
87 97 
87 100 
87 102 
87 103 
87 105 
87 108 
87 110 
87 111 
87 114 
87 116 
87 118 
87 120 
87 122 
87 123 
87 126 
87 128 
87 129 
87 131 
87 134 
87 136 
87 137 
87 140 
87 142 
87 143 
87 146 
87 148 
87 149 
87 151 
87 153 
87 155 
87 158 
87 159 
87 162 
87 163 
87 165 
87 167 
87 169 
87 171 
87 174 
87 175 
88 90 
88 92 
88 94 
88 95 
88 98 
88 99 
88 101 
88 104 
88 106 
88 107 
88 109 
88 112 
88 113 
88 115 
88 117 
88 119 
88 121 
88 124 
88 125 
88 127 
88 130 
88 132 
88 133 
88 135 
88 138 
88 139 
88 141 
88 144 
88 145 
88 147 
88 150 
88 152 
88 154 
88 156 
88 157 
88 160 
88 161 
88 164 
88 166 
88 168 
88 170 
88 172 
88 173 
88 176 
89 90 
91 92 
93 94 
95 96 
97 98 
99 100 
101 102 
103 104 
105 106 
107 108 
109 110 
111 112 
113 114 
115 116 
117 118 
119 120 
121 122 
123 124 
125 126 
127 128 
129 130 
131 132 
133 134 
135 136 
137 138 
139 140 
141 142 
143 144 
145 146 
147 148 
149 150 
151 152 
153 154 
155 156 
157 158 
159 160 
161 162 
163 164 
165 166 
167 168 
169 170 
171 172 
173 174 
175 176 
